40 40
5650 7037
7374 7088
6561 4009
4923 3826
9898 6595
8962 5341
7363 6062
575 6933
3094 9910
2614 2360
1769 7479
3375 7030
5249 1324
9604 6399
7472 429
6471 498
1117 7834
9633 7800
6789 7622
654 1818
4348 2057
6896 5156
1442 79
9393 3089
5128 1396
4101 3727
3431 5931
3762 6896
2261 2736
1711 6688
92 5555
1998 4280
2159 6312
6851 4619
8497 5126
5162 1801
1762 8166
8276 6023
1183 4069
2326 8579
